\ENCODING=ISO-8859-1
\Problem name: IloCplex

Maximize
 obj: 1326 vnp3 - 150 (π,ρ)0↑e11 - 272 (π,ρ)1↑e11
      - 150 (π,ρ)2↑e11 - 300 (π,ρ)3↑e11
      - 316 (π,ρ)4↑e11 - 190 (π,ρ)5↑e11
      - 170 (π,ρ)6↑e11 - 250 (π,ρ)7↑e11
      - 169 (π,ρ)8↑e11 - 390 (π,ρ)9↑e11
      - 310 (π,ρ)10↑e11 - 272 (π,ρ)11↑e11
      - 400 (π,ρ)12↑e11 - 441 (π,ρ)13↑e11
      - 443 (π,ρ)14↑e11 - 24 (π,ρ)15↑e12
      - 205 (π,ρ)16↑e13 - 249 (π,ρ)17↑e13
      - 273 (π,ρ)18↑e13 - 115 (π,ρ)19↑e13
      - 97 (π,ρ)20↑e13 - 172 (π,ρ)21↑e13
      - 100 (π,ρ)22↑e13 - 100 (π,ρ)23↑e13
      - 136 (π,ρ)24↑e13 - 325 (π,ρ)25↑e13
      - 301 (π,ρ)26↑e13 - 319 (π,ρ)27↑e13
      - 140 (π,ρ)28↑e13 - 140 (π,ρ)29↑e13
      - 140 (π,ρ)30↑e13 - 146 (π,ρ)31↑e14
      - 74 (π,ρ)32↑e15 - 62 (π,ρ)33↑e15
      - 78 (π,ρ)34↑e15 - 48 (π,ρ)35↑e15
      - 64 (π,ρ)36↑e15 - 48 (π,ρ)37↑e15
      - 56 (π,ρ)38↑e15 - 92 (π,ρ)39↑e15
      - 56 (π,ρ)40↑e15 - 88 (π,ρ)41↑e15
      - 114 (π,ρ)42↑e15 - 104 (π,ρ)43↑e15
      - 92 (π,ρ)44↑e15 - 80 (π,ρ)45↑e15
      - 106 (π,ρ)46↑e15
Subject To
 _EmbdConstr_vnp3e11#0:  vnp3 - (π,ρ)0↑e11 - (π,ρ)1↑e11
                         - (π,ρ)2↑e11 - (π,ρ)3↑e11
                         - (π,ρ)4↑e11 - (π,ρ)5↑e11
                         - (π,ρ)6↑e11 - (π,ρ)7↑e11
                         - (π,ρ)8↑e11 - (π,ρ)9↑e11
                         - (π,ρ)10↑e11 - (π,ρ)11↑e11
                         - (π,ρ)12↑e11 - (π,ρ)13↑e11
                         - (π,ρ)14↑e11  = 0
 _EmbdConstr_vnp3e12#1:  vnp3 - (π,ρ)15↑e12  = 0
 _EmbdConstr_vnp3e13#2:  vnp3 - (π,ρ)16↑e13 - (π,ρ)17↑e13
                         - (π,ρ)18↑e13 - (π,ρ)19↑e13
                         - (π,ρ)20↑e13 - (π,ρ)21↑e13
                         - (π,ρ)22↑e13 - (π,ρ)23↑e13
                         - (π,ρ)24↑e13 - (π,ρ)25↑e13
                         - (π,ρ)26↑e13 - (π,ρ)27↑e13
                         - (π,ρ)28↑e13 - (π,ρ)29↑e13
                         - (π,ρ)30↑e13  = 0
 _EmbdConstr_vnp3e14#3:  vnp3 - (π,ρ)31↑e14  = 0
 _EmbdConstr_vnp3e15#4:  vnp3 - (π,ρ)32↑e15 - (π,ρ)33↑e15
                         - (π,ρ)34↑e15 - (π,ρ)35↑e15
                         - (π,ρ)36↑e15 - (π,ρ)37↑e15
                         - (π,ρ)38↑e15 - (π,ρ)39↑e15
                         - (π,ρ)40↑e15 - (π,ρ)41↑e15
                         - (π,ρ)42↑e15 - (π,ρ)43↑e15
                         - (π,ρ)44↑e15 - (π,ρ)45↑e15
                         - (π,ρ)46↑e15  = 0
 BwCapConstr_slink5#5:   2 (π,ρ)5↑e11 <= 0
 BwCapConstr_slink6#6:   5 (π,ρ)6↑e11 + 5 (π,ρ)7↑e11
                         + 5 (π,ρ)8↑e11 <= 9
 BwCapConstr_slink8#7:   <= 6
 BwCapConstr_slink9#8:   5 (π,ρ)6↑e11 + 5 (π,ρ)7↑e11
                         + 5 (π,ρ)8↑e11 <= 7
 BwCapConstr_slink13#9:  2 (π,ρ)11↑e11 <= 2
 BwCapConstr_slink14#10: 5 (π,ρ)25↑e13 + 5 (π,ρ)26↑e13
                         + 5 (π,ρ)27↑e13 <= 5
 BwCapConstr_slink15#11: 5 (π,ρ)6↑e11 + 5 (π,ρ)7↑e11
                         + 5 (π,ρ)8↑e11 + 5 (π,ρ)25↑e13
                         + 5 (π,ρ)26↑e13 + 5 (π,ρ)27↑e13
                         <= 0
 BwCapConstr_slink16#12: 5 (π,ρ)12↑e11 + 5 (π,ρ)13↑e11
                         + 5 (π,ρ)14↑e11 + 5 (π,ρ)16↑e13
                         + 5 (π,ρ)17↑e13 + 5 (π,ρ)18↑e13
                         <= 0
 BwCapConstr_slink18#13: 2 (π,ρ)1↑e11 + 5 (π,ρ)4↑e11
                         + 5 (π,ρ)9↑e11 + 5 (π,ρ)10↑e11
                         + 5 (π,ρ)11↑e11 + 3 (π,ρ)12↑e11
                         + 5 (π,ρ)13↑e11 + 5 (π,ρ)14↑e11
                         + 3 (π,ρ)16↑e13 + 2 (π,ρ)17↑e13
                         + 3 (π,ρ)19↑e13 + 2 (π,ρ)21↑e13
                         + 5 (π,ρ)22↑e13 + 5 (π,ρ)23↑e13
                         + 5 (π,ρ)24↑e13 + 3 (π,ρ)25↑e13
                         <= 7
 BwCapConstr_slink19#14: 2 (π,ρ)1↑e11 + 3 (π,ρ)14↑e11
                         + 3 (π,ρ)16↑e13 + 3 (π,ρ)19↑e13
                         + 5 (π,ρ)22↑e13 + 5 (π,ρ)23↑e13
                         + 5 (π,ρ)24↑e13 + 3 (π,ρ)25↑e13
                         + 5 (π,ρ)28↑e13 + 5 (π,ρ)29↑e13
                         + 5 (π,ρ)30↑e13 <= 7
 BwCapConstr_slink20#15: 5 (π,ρ)12↑e11 + 5 (π,ρ)13↑e11
                         + 5 (π,ρ)14↑e11 + 5 (π,ρ)16↑e13
                         + 5 (π,ρ)17↑e13 + 5 (π,ρ)18↑e13
                         + 5 (π,ρ)25↑e13 + 5 (π,ρ)26↑e13
                         + 5 (π,ρ)27↑e13 <= 4
 BwCapConstr_slink21#16: 5 (π,ρ)14↑e11 + 5 (π,ρ)19↑e13
                         + 5 (π,ρ)20↑e13 + 5 (π,ρ)21↑e13
                         + 2 (π,ρ)34↑e15 + 2 (π,ρ)38↑e15
                         + 2 (π,ρ)39↑e15 + 2 (π,ρ)40↑e15
                         + 2 (π,ρ)42↑e15 + 2 (π,ρ)43↑e15
                         + 2 (π,ρ)46↑e15 <= 5
 BwCapConstr_slink22#17: 5 (π,ρ)12↑e11 + 5 (π,ρ)13↑e11
                         + 5 (π,ρ)14↑e11 + 5 (π,ρ)31↑e14
                         + 2 (π,ρ)32↑e15 + 2 (π,ρ)35↑e15
                         + 2 (π,ρ)36↑e15 + 2 (π,ρ)37↑e15
                         + 2 (π,ρ)44↑e15 <= 3
 BwCapConstr_slink23#18: 3 (π,ρ)1↑e11 + 3 (π,ρ)17↑e13
                         + (π,ρ)20↑e13 + 3 (π,ρ)21↑e13
                         + (π,ρ)31↑e14 + 2 (π,ρ)32↑e15
                         + 2 (π,ρ)33↑e15 + 2 (π,ρ)34↑e15
                         + 2 (π,ρ)36↑e15 + 2 (π,ρ)41↑e15
                         + 2 (π,ρ)42↑e15 + 2 (π,ρ)43↑e15
                         + 2 (π,ρ)44↑e15 + 2 (π,ρ)45↑e15
                         + 2 (π,ρ)46↑e15 <= 2
 BwCapConstr_slink24#19: 2 (π,ρ)31↑e14 + 2 (π,ρ)41↑e15
                         + 2 (π,ρ)42↑e15 + 2 (π,ρ)43↑e15
                         <= 15
 BwCapConstr_slink25#20: 5 (π,ρ)6↑e11 + 5 (π,ρ)7↑e11
                         + 5 (π,ρ)8↑e11 + 5 (π,ρ)12↑e11
                         + 5 (π,ρ)13↑e11 + 5 (π,ρ)14↑e11
                         + 4 (π,ρ)15↑e12 + 2 (π,ρ)35↑e15
                         + 2 (π,ρ)36↑e15 + 2 (π,ρ)37↑e15
                         + 2 (π,ρ)39↑e15 + 2 (π,ρ)41↑e15
                         + 2 (π,ρ)42↑e15 + 2 (π,ρ)43↑e15
                         <= 5
 BwCapConstr_slink26#21: <= 0
 BwCapConstr_slink27#22: <= 8
 BwCapConstr_slink28#23: 3 (π,ρ)1↑e11 + 5 (π,ρ)3↑e11
                         + 5 (π,ρ)4↑e11 + 5 (π,ρ)5↑e11
                         + 5 (π,ρ)9↑e11 + 5 (π,ρ)10↑e11
                         + 5 (π,ρ)11↑e11 + 4 (π,ρ)12↑e11
                         + 2 (π,ρ)32↑e15 + 2 (π,ρ)33↑e15
                         + 2 (π,ρ)34↑e15 <= 15
 BwCapConstr_slink29#24: 3 (π,ρ)21↑e13 + 2 (π,ρ)44↑e15
                         + 2 (π,ρ)45↑e15 + 2 (π,ρ)46↑e15
                         <= 3
 BwCapConstr_slink30#25: 5 (π,ρ)3↑e11 + 5 (π,ρ)4↑e11
                         + 5 (π,ρ)5↑e11 + 5 (π,ρ)9↑e11
                         + 5 (π,ρ)10↑e11 + 5 (π,ρ)11↑e11
                         + 2 (π,ρ)12↑e11 + 2 (π,ρ)17↑e13
                         <= 3
 BwCapConstr_slink31#26: 2 (π,ρ)4↑e11 + 2 (π,ρ)13↑e11
                         + 3 (π,ρ)14↑e11 + 4 (π,ρ)18↑e13
                         + 2 (π,ρ)38↑e15 + 2 (π,ρ)39↑e15
                         + 2 (π,ρ)40↑e15 <= 6
 BwCapConstr_slink32#27: 5 (π,ρ)9↑e11 + 5 (π,ρ)10↑e11
                         + 5 (π,ρ)11↑e11 + (π,ρ)12↑e11
                         + 3 (π,ρ)13↑e11 + 5 (π,ρ)28↑e13
                         + 5 (π,ρ)29↑e13 + 5 (π,ρ)30↑e13
                         <= 13
 BwCapConstr_slink33#28: 5 (π,ρ)3↑e11 + 5 (π,ρ)4↑e11
                         + 5 (π,ρ)5↑e11 + 5 (π,ρ)6↑e11
                         + 5 (π,ρ)7↑e11 + 3 (π,ρ)8↑e11
                         + 5 (π,ρ)19↑e13 + 5 (π,ρ)20↑e13
                         + 5 (π,ρ)21↑e13 + 5 (π,ρ)28↑e13
                         + 5 (π,ρ)29↑e13 + 5 (π,ρ)30↑e13
                         <= 0
 BwCapConstr_slink34#29: 5 (π,ρ)0↑e11 + 5 (π,ρ)1↑e11
                         + 5 (π,ρ)2↑e11 + 5 (π,ρ)3↑e11
                         + 5 (π,ρ)9↑e11 + 5 (π,ρ)10↑e11
                         + 5 (π,ρ)18↑e13 + 2 (π,ρ)20↑e13
                         + 2 (π,ρ)24↑e13 + 2 (π,ρ)26↑e13
                         <= 1
 BwCapConstr_slink35#30: 5 (π,ρ)7↑e11 <= 1
 BwCapConstr_slink36#31: 5 (π,ρ)0↑e11 + 5 (π,ρ)1↑e11
                         + 5 (π,ρ)2↑e11 + 5 (π,ρ)3↑e11
                         + 5 (π,ρ)9↑e11 + 3 (π,ρ)18↑e13
                         + 3 (π,ρ)27↑e13 <= 5
 BwCapConstr_slink37#32: 5 (π,ρ)0↑e11 + 5 (π,ρ)1↑e11
                         + 5 (π,ρ)2↑e11 + 5 (π,ρ)4↑e11
                         + 4 (π,ρ)13↑e11 + 4 (π,ρ)14↑e11
                         + 2 (π,ρ)38↑e15 + 2 (π,ρ)39↑e15
                         + 2 (π,ρ)40↑e15 + 2 (π,ρ)44↑e15
                         + 2 (π,ρ)45↑e15 + 2 (π,ρ)46↑e15
                         <= 6
Bounds
 0 <= vnp3 <= 1
 0 <= (π,ρ)0↑e11 <= 1
 0 <= (π,ρ)1↑e11 <= 1
 0 <= (π,ρ)2↑e11 <= 1
 0 <= (π,ρ)3↑e11 <= 1
 0 <= (π,ρ)4↑e11 <= 1
 0 <= (π,ρ)5↑e11 <= 1
 0 <= (π,ρ)6↑e11 <= 1
 0 <= (π,ρ)7↑e11 <= 1
 0 <= (π,ρ)8↑e11 <= 1
 0 <= (π,ρ)9↑e11 <= 1
 0 <= (π,ρ)10↑e11 <= 1
 0 <= (π,ρ)11↑e11 <= 1
 0 <= (π,ρ)12↑e11 <= 1
 0 <= (π,ρ)13↑e11 <= 1
 0 <= (π,ρ)14↑e11 <= 1
 0 <= (π,ρ)15↑e12 <= 1
 0 <= (π,ρ)16↑e13 <= 1
 0 <= (π,ρ)17↑e13 <= 1
 0 <= (π,ρ)18↑e13 <= 1
 0 <= (π,ρ)19↑e13 <= 1
 0 <= (π,ρ)20↑e13 <= 1
 0 <= (π,ρ)21↑e13 <= 1
 0 <= (π,ρ)22↑e13 <= 1
 0 <= (π,ρ)23↑e13 <= 1
 0 <= (π,ρ)24↑e13 <= 1
 0 <= (π,ρ)25↑e13 <= 1
 0 <= (π,ρ)26↑e13 <= 1
 0 <= (π,ρ)27↑e13 <= 1
 0 <= (π,ρ)28↑e13 <= 1
 0 <= (π,ρ)29↑e13 <= 1
 0 <= (π,ρ)30↑e13 <= 1
 0 <= (π,ρ)31↑e14 <= 1
 0 <= (π,ρ)32↑e15 <= 1
 0 <= (π,ρ)33↑e15 <= 1
 0 <= (π,ρ)34↑e15 <= 1
 0 <= (π,ρ)35↑e15 <= 1
 0 <= (π,ρ)36↑e15 <= 1
 0 <= (π,ρ)37↑e15 <= 1
 0 <= (π,ρ)38↑e15 <= 1
 0 <= (π,ρ)39↑e15 <= 1
 0 <= (π,ρ)40↑e15 <= 1
 0 <= (π,ρ)41↑e15 <= 1
 0 <= (π,ρ)42↑e15 <= 1
 0 <= (π,ρ)43↑e15 <= 1
 0 <= (π,ρ)44↑e15 <= 1
 0 <= (π,ρ)45↑e15 <= 1
 0 <= (π,ρ)46↑e15 <= 1
Binaries
 vnp3  (π,ρ)0↑e11  (π,ρ)1↑e11  (π,ρ)2↑e11 
 (π,ρ)3↑e11  (π,ρ)4↑e11  (π,ρ)5↑e11 
 (π,ρ)6↑e11  (π,ρ)7↑e11  (π,ρ)8↑e11 
 (π,ρ)9↑e11  (π,ρ)10↑e11  (π,ρ)11↑e11 
 (π,ρ)12↑e11  (π,ρ)13↑e11  (π,ρ)14↑e11 
 (π,ρ)15↑e12  (π,ρ)16↑e13  (π,ρ)17↑e13 
 (π,ρ)18↑e13  (π,ρ)19↑e13  (π,ρ)20↑e13 
 (π,ρ)21↑e13  (π,ρ)22↑e13  (π,ρ)23↑e13 
 (π,ρ)24↑e13  (π,ρ)25↑e13  (π,ρ)26↑e13 
 (π,ρ)27↑e13  (π,ρ)28↑e13  (π,ρ)29↑e13 
 (π,ρ)30↑e13  (π,ρ)31↑e14  (π,ρ)32↑e15 
 (π,ρ)33↑e15  (π,ρ)34↑e15  (π,ρ)35↑e15 
 (π,ρ)36↑e15  (π,ρ)37↑e15  (π,ρ)38↑e15 
 (π,ρ)39↑e15  (π,ρ)40↑e15  (π,ρ)41↑e15 
 (π,ρ)42↑e15  (π,ρ)43↑e15  (π,ρ)44↑e15 
 (π,ρ)45↑e15  (π,ρ)46↑e15 
End
